1212
18
32
71
37
14
29
27
96
53
0
81
78
52
49
59
1
24
69
58
56
17
3
99
98
26
63
82
89
34
39
88
68
30
97
36
19
11
74
47
2
25
8
93
21
94
40
76
7
38
67
77
5
70
41
92
9
65
57
44
4
83
12
55
15
45
64
43
22
66
85
31
35
20
61
79
10
72
80
91
6
73
46
51
33
50
48
84
95
28
13
54
60
23
75
42
16
90
87
62
86
